problems/csplib-prob024/Langford-models/compact/O2/lingeling/model-langford_2_12-solution000001.eprime-solution
language ESSENCE' 1.0

letting seq_Function1D be [7, 8, 11, 1, 10, 1, 9, 4, 7, 12, 8, 5, 4, 6, 11, 10, 9, 5, 2, 3, 6, 2, 12, 3; int(1..24)]
