problems/csplib-prob024/Langford-models/compact/O2/lingeling/model-langford_2_12-solution000001.solution
language Essence 1.3

letting seq be
        function(1 --> 7, 2 --> 8, 3 --> 11, 4 --> 1, 5 --> 10, 6 --> 1, 7 --> 9, 8 --> 4, 9 --> 7, 10 --> 12, 11 --> 8,
                 12 --> 5, 13 --> 4, 14 --> 6, 15 --> 11, 16 --> 10, 17 --> 9, 18 --> 5, 19 --> 2, 20 --> 3, 21 --> 6,
                 22 --> 2, 23 --> 12, 24 --> 3)
